
Gurobi 11.0.0 (win64) logging started Mon Apr 22 12:22:03 2024

Set parameter LogFile to value "./Results/StripPacking_CutsTest_SBL/Logs/SBL-StripPacking-10.log"
Set parameter TimeLimit to value 3600
Set parameter Cuts to value 1
Set parameter Presolve to value 1
Set parameter Heuristics to value 1
Gurobi Optimizer version 11.0.0 build v11.0.0rc2 (win64 - Windows 10.0 (19045.2))

CPU model: Intel(R) Core(TM) i9-10980XE CPU @ 3.00GHz, instruction set [SSE2|AVX|AVX2|AVX512]
Thread count: 18 physical cores, 36 logical processors, using up to 18 threads

Optimize a model with 550 rows, 111 columns and 1820 nonzeros
Model fingerprint: 0x959974b0
Variable types: 21 continuous, 90 integer (90 binary)
Coefficient statistics:
  Matrix range     [1e+00, 1e+02]
  Objective range  [1e+00, 1e+00]
  Bounds range     [1e+00, 1e+02]
  RHS range        [1e+00, 3e+02]
Presolve removed 38 rows and 7 columns
Presolve time: 0.00s
Presolved: 512 rows, 104 columns, 1791 nonzeros
Variable types: 21 continuous, 83 integer (83 binary)

Root relaxation: objective 1.190000e+02, 75 iterations, 0.00 seconds (0.00 work units)

    Nodes    |    Current Node    |     Objective Bounds      |     Work
 Expl Unexpl |  Obj  Depth IntInf | Incumbent    BestBd   Gap | It/Node Time

     0     0  119.00000    0    7          -  119.00000      -     -    0s
     0     0  119.00000    0   12          -  119.00000      -     -    0s
     0     0  119.00000    0   17          -  119.00000      -     -    0s
     0     0  119.00000    0   10          -  119.00000      -     -    0s
     0     0  119.00000    0   12          -  119.00000      -     -    0s
     0     0  119.00000    0    6          -  119.00000      -     -    0s
     0     0  119.00000    0   12          -  119.00000      -     -    0s
     0     0  119.00000    0    9          -  119.00000      -     -    0s
     0     0  119.00000    0   13          -  119.00000      -     -    0s
     0     0  119.00000    0    3          -  119.00000      -     -    0s
     0     0  119.00000    0   13          -  119.00000      -     -    0s
     0     0  119.00000    0    5          -  119.00000      -     -    0s
     0     0  119.00000    0    5          -  119.00000      -     -    0s
H    0     0                     143.0000000  119.00000  16.8%     -    0s
     0     2  119.00000    0    5  143.00000  119.00000  16.8%     -    0s
H  624   208                     143.0000000  119.00000  16.8%   6.7    0s
  5702     9 infeasible   23       143.00000  141.00000  1.40%   5.4    5s

Cutting planes:
  Learned: 427
  Gomory: 2
  Cover: 14
  MIR: 66
  StrongCG: 2
  RLT: 1

Explored 5721 nodes (32046 simplex iterations) in 5.23 seconds (4.38 work units)
Thread count was 18 (of 36 available processors)

Solution count 2: 143 143 

Optimal solution found (tolerance 1.00e-04)
Best objective 1.429999999856e+02, best bound 1.429999999856e+02, gap 0.0000%

Gurobi 11.0.0 (win64) logging started Mon Apr 22 12:22:09 2024

Set parameter LogFile to value "./Results/StripPacking_CutsTest_SBL/Logs/SBL-StripPacking-10.log"
Set parameter TimeLimit to value 3600
Set parameter Cuts to value 1
Set parameter Presolve to value 0
Set parameter Heuristics to value 0
Gurobi Optimizer version 11.0.0 build v11.0.0rc2 (win64 - Windows 10.0 (19045.2))

CPU model: Intel(R) Core(TM) i9-10980XE CPU @ 3.00GHz, instruction set [SSE2|AVX|AVX2|AVX512]
Thread count: 18 physical cores, 36 logical processors, using up to 18 threads

Optimize a model with 550 rows, 111 columns and 1820 nonzeros
Model fingerprint: 0x959974b0
Variable types: 21 continuous, 90 integer (90 binary)
Coefficient statistics:
  Matrix range     [1e+00, 1e+02]
  Objective range  [1e+00, 1e+00]
  Bounds range     [1e+00, 1e+02]
  RHS range        [1e+00, 3e+02]
Variable types: 21 continuous, 90 integer (90 binary)

Root relaxation: objective 7.100000e+01, 103 iterations, 0.00 seconds (0.00 work units)

    Nodes    |    Current Node    |     Objective Bounds      |     Work
 Expl Unexpl |  Obj  Depth IntInf | Incumbent    BestBd   Gap | It/Node Time

     0     0   71.00000    0   19          -   71.00000      -     -    0s
     0     0  119.00000    0    9          -  119.00000      -     -    0s
     0     0  119.00000    0   20          -  119.00000      -     -    0s
     0     0  119.00000    0   16          -  119.00000      -     -    0s
     0     0  119.00000    0    6          -  119.00000      -     -    0s
     0     0  119.00000    0   10          -  119.00000      -     -    0s
     0     0  119.00000    0   10          -  119.00000      -     -    0s
     0     0  119.00000    0    9          -  119.00000      -     -    0s
     0     0  119.00000    0    8          -  119.00000      -     -    0s
     0     0  119.00000    0   13          -  119.00000      -     -    0s
     0     0  119.00000    0   11          -  119.00000      -     -    0s
     0     0  119.00000    0   18          -  119.00000      -     -    0s
     0     0  119.00000    0   14          -  119.00000      -     -    0s
     0     0  119.00000    0   14          -  119.00000      -     -    0s
     0     2  119.00000    0    6          -  119.00000      -     -    0s
* 7589   859              28     143.0000000  139.00000  2.80%   4.7    0s

Cutting planes:
  Learned: 88
  Gomory: 1
  Cover: 1
  MIR: 8
  Flow cover: 16
  RLT: 4
  Relax-and-lift: 2

Explored 8969 nodes (50675 simplex iterations) in 0.52 seconds (0.27 work units)
Thread count was 18 (of 36 available processors)

Solution count 1: 143 

Optimal solution found (tolerance 1.00e-04)
Best objective 1.430000000000e+02, best bound 1.430000000000e+02, gap 0.0000%

Gurobi 11.0.0 (win64) logging started Mon Apr 22 12:22:09 2024

Set parameter LogFile to value "./Results/StripPacking_CutsTest_SBL/Logs/SBL-StripPacking-10.log"
Set parameter TimeLimit to value 3600
Set parameter Cuts to value 0
Set parameter Presolve to value 1
Set parameter Heuristics to value 0
Gurobi Optimizer version 11.0.0 build v11.0.0rc2 (win64 - Windows 10.0 (19045.2))

CPU model: Intel(R) Core(TM) i9-10980XE CPU @ 3.00GHz, instruction set [SSE2|AVX|AVX2|AVX512]
Thread count: 18 physical cores, 36 logical processors, using up to 18 threads

Optimize a model with 550 rows, 111 columns and 1820 nonzeros
Model fingerprint: 0x959974b0
Variable types: 21 continuous, 90 integer (90 binary)
Coefficient statistics:
  Matrix range     [1e+00, 1e+02]
  Objective range  [1e+00, 1e+00]
  Bounds range     [1e+00, 1e+02]
  RHS range        [1e+00, 3e+02]
Presolve removed 38 rows and 7 columns
Presolve time: 0.00s
Presolved: 512 rows, 104 columns, 1791 nonzeros
Variable types: 21 continuous, 83 integer (83 binary)

Root relaxation: objective 1.190000e+02, 75 iterations, 0.00 seconds (0.00 work units)

    Nodes    |    Current Node    |     Objective Bounds      |     Work
 Expl Unexpl |  Obj  Depth IntInf | Incumbent    BestBd   Gap | It/Node Time

     0     0  119.00000    0    7          -  119.00000      -     -    0s
     0     0  119.00000    0    7          -  119.00000      -     -    0s
     0     2  119.00000    0    7          -  119.00000      -     -    0s
* 6443  1348              31     144.0000000  136.00000  5.56%   2.1    0s
* 7260   933              30     143.0000000  137.00000  4.20%   3.4    0s

Explored 7494 nodes (53771 simplex iterations) in 0.19 seconds (0.16 work units)
Thread count was 18 (of 36 available processors)

Solution count 2: 143 144 

Optimal solution found (tolerance 1.00e-04)
Best objective 1.430000000000e+02, best bound 1.430000000000e+02, gap 0.0000%

Gurobi 11.0.0 (win64) logging started Mon Apr 22 12:22:10 2024

Set parameter LogFile to value "./Results/StripPacking_CutsTest_SBL/Logs/SBL-StripPacking-10.log"
Set parameter TimeLimit to value 3600
Set parameter Cuts to value 0
Set parameter Presolve to value 0
Set parameter Heuristics to value 1
Gurobi Optimizer version 11.0.0 build v11.0.0rc2 (win64 - Windows 10.0 (19045.2))

CPU model: Intel(R) Core(TM) i9-10980XE CPU @ 3.00GHz, instruction set [SSE2|AVX|AVX2|AVX512]
Thread count: 18 physical cores, 36 logical processors, using up to 18 threads

Optimize a model with 550 rows, 111 columns and 1820 nonzeros
Model fingerprint: 0x959974b0
Variable types: 21 continuous, 90 integer (90 binary)
Coefficient statistics:
  Matrix range     [1e+00, 1e+02]
  Objective range  [1e+00, 1e+00]
  Bounds range     [1e+00, 1e+02]
  RHS range        [1e+00, 3e+02]
Variable types: 21 continuous, 90 integer (90 binary)

Root relaxation: objective 7.100000e+01, 103 iterations, 0.00 seconds (0.00 work units)

    Nodes    |    Current Node    |     Objective Bounds      |     Work
 Expl Unexpl |  Obj  Depth IntInf | Incumbent    BestBd   Gap | It/Node Time

     0     0   71.00000    0   19          -   71.00000      -     -    0s
     0     0  119.00000    0    9          -  119.00000      -     -    0s
     0     0  119.00000    0    9          -  119.00000      -     -    0s
     0     2  119.00000    0    9          -  119.00000      -     -    0s
H  457   237                     144.0000000  119.00000  17.4%   7.4    0s
H 1474   611                     143.0000000  119.00000  16.8%   5.2    0s
H 3750  1094                     143.0000000  119.00000  16.8%   5.5    0s

Explored 10012 nodes (53086 simplex iterations) in 2.80 seconds (2.25 work units)
Thread count was 18 (of 36 available processors)

Solution count 3: 143 143 144 

Optimal solution found (tolerance 1.00e-04)
Best objective 1.429999999856e+02, best bound 1.429999999856e+02, gap 0.0000%

Gurobi 11.0.0 (win64) logging started Mon Apr 22 12:22:12 2024

Set parameter LogFile to value "./Results/StripPacking_CutsTest_SBL/Logs/SBL-StripPacking-10.log"
Set parameter TimeLimit to value 3600
Set parameter Cuts to value 1
Set parameter Presolve to value 1
Set parameter Heuristics to value 0
Gurobi Optimizer version 11.0.0 build v11.0.0rc2 (win64 - Windows 10.0 (19045.2))

CPU model: Intel(R) Core(TM) i9-10980XE CPU @ 3.00GHz, instruction set [SSE2|AVX|AVX2|AVX512]
Thread count: 18 physical cores, 36 logical processors, using up to 18 threads

Optimize a model with 550 rows, 111 columns and 1820 nonzeros
Model fingerprint: 0x959974b0
Variable types: 21 continuous, 90 integer (90 binary)
Coefficient statistics:
  Matrix range     [1e+00, 1e+02]
  Objective range  [1e+00, 1e+00]
  Bounds range     [1e+00, 1e+02]
  RHS range        [1e+00, 3e+02]
Presolve removed 38 rows and 7 columns
Presolve time: 0.00s
Presolved: 512 rows, 104 columns, 1791 nonzeros
Variable types: 21 continuous, 83 integer (83 binary)

Root relaxation: objective 1.190000e+02, 75 iterations, 0.00 seconds (0.00 work units)

    Nodes    |    Current Node    |     Objective Bounds      |     Work
 Expl Unexpl |  Obj  Depth IntInf | Incumbent    BestBd   Gap | It/Node Time

     0     0  119.00000    0    7          -  119.00000      -     -    0s
     0     0  119.00000    0   12          -  119.00000      -     -    0s
     0     0  119.00000    0   17          -  119.00000      -     -    0s
     0     0  119.00000    0    6          -  119.00000      -     -    0s
     0     0  119.00000    0    7          -  119.00000      -     -    0s
     0     0  119.00000    0    9          -  119.00000      -     -    0s
     0     0  119.00000    0   24          -  119.00000      -     -    0s
     0     0  119.00000    0    7          -  119.00000      -     -    0s
     0     0  119.00000    0   15          -  119.00000      -     -    0s
     0     0  119.00000    0    3          -  119.00000      -     -    0s
     0     0  119.00000    0    7          -  119.00000      -     -    0s
     0     0  119.00000    0    8          -  119.00000      -     -    0s
     0     0  119.00000    0   18          -  119.00000      -     -    0s
     0     0  119.00000    0    8          -  119.00000      -     -    0s
     0     0  119.00000    0    8          -  119.00000      -     -    0s
     0     2  119.00000    0    8          -  119.00000      -     -    0s
*10297  1207              33     144.0000000  137.00000  4.86%   4.5    0s
*13659   920              26     143.0000000  142.00000  0.70%   4.4    0s

Cutting planes:
  Learned: 548
  Gomory: 1
  Cover: 17
  MIR: 74
  StrongCG: 2
  RLT: 1

Explored 15294 nodes (66730 simplex iterations) in 0.67 seconds (0.28 work units)
Thread count was 18 (of 36 available processors)

Solution count 2: 143 144 

Optimal solution found (tolerance 1.00e-04)
Best objective 1.430000000000e+02, best bound 1.430000000000e+02, gap 0.0000%

Gurobi 11.0.0 (win64) logging started Mon Apr 22 12:22:13 2024

Set parameter LogFile to value "./Results/StripPacking_CutsTest_SBL/Logs/SBL-StripPacking-10.log"
Set parameter TimeLimit to value 3600
Set parameter Cuts to value 1
Set parameter Presolve to value 0
Set parameter Heuristics to value 1
Gurobi Optimizer version 11.0.0 build v11.0.0rc2 (win64 - Windows 10.0 (19045.2))

CPU model: Intel(R) Core(TM) i9-10980XE CPU @ 3.00GHz, instruction set [SSE2|AVX|AVX2|AVX512]
Thread count: 18 physical cores, 36 logical processors, using up to 18 threads

Optimize a model with 550 rows, 111 columns and 1820 nonzeros
Model fingerprint: 0x959974b0
Variable types: 21 continuous, 90 integer (90 binary)
Coefficient statistics:
  Matrix range     [1e+00, 1e+02]
  Objective range  [1e+00, 1e+00]
  Bounds range     [1e+00, 1e+02]
  RHS range        [1e+00, 3e+02]
Variable types: 21 continuous, 90 integer (90 binary)

Root relaxation: objective 7.100000e+01, 103 iterations, 0.00 seconds (0.00 work units)

    Nodes    |    Current Node    |     Objective Bounds      |     Work
 Expl Unexpl |  Obj  Depth IntInf | Incumbent    BestBd   Gap | It/Node Time

     0     0   71.00000    0   19          -   71.00000      -     -    0s
     0     0  119.00000    0    9          -  119.00000      -     -    0s
     0     0  119.00000    0   20          -  119.00000      -     -    0s
     0     0  119.00000    0   16          -  119.00000      -     -    0s
     0     0  119.00000    0    6          -  119.00000      -     -    0s
     0     0  119.00000    0   14          -  119.00000      -     -    0s
     0     0  119.00000    0   14          -  119.00000      -     -    0s
     0     0  119.00000    0   13          -  119.00000      -     -    0s
     0     0  119.00000    0    8          -  119.00000      -     -    0s
     0     0  119.00000    0   15          -  119.00000      -     -    0s
     0     0  119.00000    0    6          -  119.00000      -     -    0s
     0     0  119.00000    0   16          -  119.00000      -     -    0s
     0     0  119.00000    0    7          -  119.00000      -     -    0s
     0     0  119.00000    0    7          -  119.00000      -     -    0s
     0     2  119.00000    0    7          -  119.00000      -     -    0s
* 3118   969              33     144.0000000  136.00000  5.56%   5.5    0s
* 3795  1076              36     143.0000000  137.00000  4.20%   5.2    0s

Cutting planes:
  Learned: 512
  Gomory: 1
  Cover: 7
  Implied bound: 1
  Clique: 1
  MIR: 50
  Inf proof: 1
  Mod-K: 2
  Relax-and-lift: 6

Explored 7730 nodes (36628 simplex iterations) in 2.13 seconds (1.37 work units)
Thread count was 18 (of 36 available processors)

Solution count 2: 143 144 

Optimal solution found (tolerance 1.00e-04)
Best objective 1.430000000000e+02, best bound 1.430000000000e+02, gap 0.0000%

Gurobi 11.0.0 (win64) logging started Mon Apr 22 12:22:15 2024

Set parameter LogFile to value "./Results/StripPacking_CutsTest_SBL/Logs/SBL-StripPacking-10.log"
Set parameter TimeLimit to value 3600
Set parameter Cuts to value 0
Set parameter Presolve to value 1
Set parameter Heuristics to value 1
Gurobi Optimizer version 11.0.0 build v11.0.0rc2 (win64 - Windows 10.0 (19045.2))

CPU model: Intel(R) Core(TM) i9-10980XE CPU @ 3.00GHz, instruction set [SSE2|AVX|AVX2|AVX512]
Thread count: 18 physical cores, 36 logical processors, using up to 18 threads

Optimize a model with 550 rows, 111 columns and 1820 nonzeros
Model fingerprint: 0x959974b0
Variable types: 21 continuous, 90 integer (90 binary)
Coefficient statistics:
  Matrix range     [1e+00, 1e+02]
  Objective range  [1e+00, 1e+00]
  Bounds range     [1e+00, 1e+02]
  RHS range        [1e+00, 3e+02]
Presolve removed 38 rows and 7 columns
Presolve time: 0.00s
Presolved: 512 rows, 104 columns, 1791 nonzeros
Variable types: 21 continuous, 83 integer (83 binary)

Root relaxation: objective 1.190000e+02, 75 iterations, 0.00 seconds (0.00 work units)

    Nodes    |    Current Node    |     Objective Bounds      |     Work
 Expl Unexpl |  Obj  Depth IntInf | Incumbent    BestBd   Gap | It/Node Time

     0     0  119.00000    0    7          -  119.00000      -     -    0s
     0     0  119.00000    0    7          -  119.00000      -     -    0s
     0     2  119.00000    0    7          -  119.00000      -     -    0s
* 1239   514              27     143.0000000  119.00000  16.8%   6.0    0s
H 7074   911                     143.0000000  132.00000  7.69%   4.8    3s
  9374   945 infeasible   24       143.00000  132.00000  7.69%   4.6    5s

Explored 14210 nodes (67385 simplex iterations) in 7.17 seconds (6.40 work units)
Thread count was 18 (of 36 available processors)

Solution count 2: 143 143 

Optimal solution found (tolerance 1.00e-04)
Best objective 1.429999999856e+02, best bound 1.429999999856e+02, gap 0.0000%

Gurobi 11.0.0 (win64) logging started Mon Apr 22 12:22:23 2024

Set parameter LogFile to value "./Results/StripPacking_CutsTest_SBL/Logs/SBL-StripPacking-10.log"
Set parameter TimeLimit to value 3600
Set parameter Cuts to value 0
Set parameter Presolve to value 0
Set parameter Heuristics to value 0
Gurobi Optimizer version 11.0.0 build v11.0.0rc2 (win64 - Windows 10.0 (19045.2))

CPU model: Intel(R) Core(TM) i9-10980XE CPU @ 3.00GHz, instruction set [SSE2|AVX|AVX2|AVX512]
Thread count: 18 physical cores, 36 logical processors, using up to 18 threads

Optimize a model with 550 rows, 111 columns and 1820 nonzeros
Model fingerprint: 0x959974b0
Variable types: 21 continuous, 90 integer (90 binary)
Coefficient statistics:
  Matrix range     [1e+00, 1e+02]
  Objective range  [1e+00, 1e+00]
  Bounds range     [1e+00, 1e+02]
  RHS range        [1e+00, 3e+02]
Variable types: 21 continuous, 90 integer (90 binary)

Root relaxation: objective 7.100000e+01, 103 iterations, 0.00 seconds (0.00 work units)

    Nodes    |    Current Node    |     Objective Bounds      |     Work
 Expl Unexpl |  Obj  Depth IntInf | Incumbent    BestBd   Gap | It/Node Time

     0     0   71.00000    0   19          -   71.00000      -     -    0s
     0     0  119.00000    0    9          -  119.00000      -     -    0s
     0     0  119.00000    0    9          -  119.00000      -     -    0s
     0     2  119.00000    0    9          -  119.00000      -     -    0s
*  824   353              30     144.0000000  119.00000  17.4%   6.5    0s
* 5685  1236              27     143.0000000  121.01190  15.4%   4.7    0s

Explored 7907 nodes (51842 simplex iterations) in 0.22 seconds (0.17 work units)
Thread count was 18 (of 36 available processors)

Solution count 2: 143 144 

Optimal solution found (tolerance 1.00e-04)
Best objective 1.430000000000e+02, best bound 1.430000000000e+02, gap 0.0000%
